c generated by sgen
p cnf 101 212
-2 -3 -4 0
-1 -3 -4 0
-1 -2 -4 0
-1 -2 -3 0
-6 -7 -8 0
-5 -7 -8 0
-5 -6 -8 0
-5 -6 -7 0
-10 -11 -12 0
-9 -11 -12 0
-9 -10 -12 0
-9 -10 -11 0
-14 -15 -16 0
-13 -15 -16 0
-13 -14 -16 0
-13 -14 -15 0
-18 -19 -20 0
-17 -19 -20 0
-17 -18 -20 0
-17 -18 -19 0
-22 -23 -24 0
-21 -23 -24 0
-21 -22 -24 0
-21 -22 -23 0
-26 -27 -28 0
-25 -27 -28 0
-25 -26 -28 0
-25 -26 -27 0
-30 -31 -32 0
-29 -31 -32 0
-29 -30 -32 0
-29 -30 -31 0
-34 -35 -36 0
-33 -35 -36 0
-33 -34 -36 0
-33 -34 -35 0
-38 -39 -40 0
-37 -39 -40 0
-37 -38 -40 0
-37 -38 -39 0
-42 -43 -44 0
-41 -43 -44 0
-41 -42 -44 0
-41 -42 -43 0
-46 -47 -48 0
-45 -47 -48 0
-45 -46 -48 0
-45 -46 -47 0
-50 -51 -52 0
-49 -51 -52 0
-49 -50 -52 0
-49 -50 -51 0
-54 -55 -56 0
-53 -55 -56 0
-53 -54 -56 0
-53 -54 -55 0
-58 -59 -60 0
-57 -59 -60 0
-57 -58 -60 0
-57 -58 -59 0
-62 -63 -64 0
-61 -63 -64 0
-61 -62 -64 0
-61 -62 -63 0
-66 -67 -68 0
-65 -67 -68 0
-65 -66 -68 0
-65 -66 -67 0
-70 -71 -72 0
-69 -71 -72 0
-69 -70 -72 0
-69 -70 -71 0
-74 -75 -76 0
-73 -75 -76 0
-73 -74 -76 0
-73 -74 -75 0
-78 -79 -80 0
-77 -79 -80 0
-77 -78 -80 0
-77 -78 -79 0
-82 -83 -84 0
-81 -83 -84 0
-81 -82 -84 0
-81 -82 -83 0
-86 -87 -88 0
-85 -87 -88 0
-85 -86 -88 0
-85 -86 -87 0
-90 -91 -92 0
-89 -91 -92 0
-89 -90 -92 0
-89 -90 -91 0
-94 -95 -96 0
-93 -95 -96 0
-93 -94 -96 0
-93 -94 -95 0
-97 -98 -99 0
-97 -98 -100 0
-97 -98 -101 0
-97 -99 -100 0
-97 -99 -101 0
-97 -100 -101 0
-98 -99 -100 0
-98 -99 -101 0
-98 -100 -101 0
-99 -100 -101 0
2 21 44 0
54 21 44 0
54 2 44 0
54 2 21 0
46 55 81 0
97 55 81 0
97 46 81 0
97 46 55 0
94 23 9 0
98 23 9 0
98 94 9 0
98 94 23 0
17 36 61 0
7 36 61 0
7 17 61 0
7 17 36 0
12 43 69 0
90 43 69 0
90 12 69 0
90 12 43 0
75 53 10 0
65 53 10 0
65 75 10 0
65 75 53 0
89 79 47 0
52 79 47 0
52 89 47 0
52 89 79 0
51 42 93 0
60 42 93 0
60 51 93 0
60 51 42 0
33 30 76 0
37 30 76 0
37 33 76 0
37 33 30 0
8 56 40 0
91 56 40 0
91 8 40 0
91 8 56 0
73 20 50 0
71 20 50 0
71 73 50 0
71 73 20 0
13 80 6 0
28 80 6 0
28 13 6 0
28 13 80 0
64 96 48 0
85 96 48 0
85 64 48 0
85 64 96 0
11 63 25 0
49 63 25 0
49 11 25 0
49 11 63 0
62 29 99 0
4 29 99 0
4 62 99 0
4 62 29 0
22 88 74 0
26 88 74 0
26 22 74 0
26 22 88 0
32 18 87 0
92 18 87 0
92 32 87 0
92 32 18 0
16 34 59 0
3 34 59 0
3 16 59 0
3 16 34 0
58 77 19 0
82 77 19 0
82 58 19 0
82 58 77 0
95 72 31 0
14 72 31 0
14 95 31 0
14 95 72 0
83 35 24 0
67 35 24 0
67 83 24 0
67 83 35 0
101 70 66 0
78 70 66 0
78 101 66 0
78 101 70 0
1 45 38 0
27 45 38 0
27 1 38 0
27 1 45 0
68 57 5 0
100 57 5 0
100 68 5 0
100 68 57 0
86 39 84 0
86 39 41 0
86 39 15 0
86 84 41 0
86 84 15 0
86 41 15 0
39 84 41 0
39 84 15 0
39 41 15 0
84 41 15 0
